Version identifier: 12.10.0.0 | 2019-11-26 | 843d4de
CPXPARAM_WorkMem                                 28672
Tried aggregator 2 times.
MIP Presolve eliminated 10 rows and 0 columns.
MIP Presolve added 20 rows and 0 columns.
Aggregator did 30 substitutions.
Reduced MIP has 52 rows, 50 columns, and 208 nonzeros.
Reduced MIP has 50 binaries, 0 generals, 0 SOSs, and 0 indicators.
Presolve time = 0,00 sec. (0,38 ticks)
Found incumbent of value 180,000000 after 0,00 sec. (0,45 ticks)
Probing fixed 1 vars, tightened 0 bounds.
Probing time = 0,00 sec. (0,16 ticks)
Tried aggregator 1 time.
Detecting symmetries...
MIP Presolve eliminated 1 rows and 1 columns.
Reduced MIP has 51 rows, 49 columns, and 202 nonzeros.
Reduced MIP has 49 binaries, 0 generals, 0 SOSs, and 0 indicators.
Presolve time = 0,00 sec. (0,16 ticks)
Probing time = 0,00 sec. (0,15 ticks)
Clique table members: 203.
MIP emphasis: balance optimality and feasibility.
MIP search method: dynamic search.
Parallel mode: deterministic, using up to 16 threads.
Root relaxation solution time = 0,00 sec. (0,09 ticks)

        Nodes                                         Cuts/
   Node  Left     Objective  IInf  Best Integer    Best Bound    ItCnt     Gap

*     0+    0                          180,0000        3,0000            98,33%
*     0+    0                          163,0000        3,0000            98,16%
*     0+    0                          146,0000        3,0000            97,95%
      0     0       96,1440    36      146,0000       96,1440       22   34,15%
      0     0      126,8951    36      146,0000      Cuts: 54       63   13,09%
      0     0      131,0110    36      146,0000      Cuts: 54       79   10,27%
      0     0      131,6351    36      146,0000      Cuts: 30       87    9,84%
      0     0      131,6460    36      146,0000       Cuts: 6       89    9,83%
      0     0      131,6602    36      146,0000   Impl Bds: 1       95    9,82%
Detecting symmetries...
      0     0      131,6786    36      146,0000   ZeroHalf: 1       97    9,81%
      0     0      131,7020    36      146,0000    MIRcuts: 1      103    9,79%
      0     0      131,8936    36      146,0000      Cuts: 20      107    9,66%
      0     0      132,0054    36      146,0000      Cuts: 33      113    9,59%
      0     0      132,3629    36      146,0000      Cuts: 11      121    9,34%
      0     0      132,3824    36      146,0000       Cuts: 3      123    9,33%
      0     0      132,3983    36      146,0000       Cuts: 2      127    9,32%
      0     0      132,5051    36      146,0000   ZeroHalf: 7      131    9,24%
      0     0      132,6555    36      146,0000       Cuts: 5      138    9,14%
      0     0      132,7914    36      146,0000      Cuts: 14      143    9,05%
      0     0      132,9466    36      146,0000       Cuts: 9      149    8,94%
      0     0      133,1162    36      146,0000       Cuts: 4      153    8,82%
      0     0      133,2972    36      146,0000       Cuts: 9      161    8,70%
      0     0      133,5069    36      146,0000      Cuts: 19      171    8,56%
      0     0      133,5958    36      146,0000      Cuts: 14      174    8,50%
      0     0      133,8492    36      146,0000       Cuts: 9      182    8,32%
      0     0      133,9019    36      146,0000       Cuts: 5      189    8,29%
      0     0      133,9653    36      146,0000       Cuts: 8      197    8,24%
      0     0      134,0293    36      146,0000       Cuts: 3      205    8,20%
      0     0      134,0660    36      146,0000   ZeroHalf: 1      209    8,17%
      0     0      134,0952    36      146,0000   ZeroHalf: 2      213    8,15%
      0     0        cutoff            146,0000      146,0000      213    0,00%
Elapsed time = 0,04 sec. (15,78 ticks, tree = 0,01 MB, solutions = 3)

Clique cuts applied:  6
Cover cuts applied:  8
Mixed integer rounding cuts applied:  2
Zero-half cuts applied:  7
Gomory fractional cuts applied:  1

Root node processing (before b&c):
  Real time             =    0,04 sec. (15,79 ticks)
Parallel b&c, 16 threads:
  Real time             =    0,00 sec. (0,00 ticks)
  Sync time (average)   =    0,00 sec.
  Wait time (average)   =    0,00 sec.
                          ------------
Total (root+branch&cut) =    0,04 sec. (15,79 ticks)
